
ACE v2.1 

  instance
    name:PyCSP

  Loading variables...

  Loading constraints...

  domains
    types:1  values:675  sizes:[5:135]
  variables
    count:135  arrays:1  degrees:[91:4,92:88,93:43]
  constraints
    count:3019  specific:49  groups:2  arities:[4:2970,6:44,45:3,90:2]
    distribution:[Cardinality:3,ConstraintIntension:2970,LexicographicLE:46]
    intStructures:(1,shared:2969)
    wck:1.45  cpu:2.078  mem:73M75

  Building solver... 

  solver
    guaranteedAC:true
    wck:1.52  cpu:2.093  mem:78M318

  preprocessing
    revisions:(11880,useless=11880)  values:675  unsat:false
    wck:0.022  cpu:2.093  mem:78M318

    run0  dpts:0..39  effs:1004  fails:7  wrgs:47  wck:0.00

  global
    effs:1004  revisions:(252606,useless=252503)
    stop:FULL_EXPLORATION  wrgs:47
    wck:1.73  cpu:2.265  mem:78M318

s UNSATISFIABLE

d WRONG DECISIONS 47
d FOUND SOLUTIONS 0
d COMPLETE EXPLORATION

c real time : 2.265
